certificates/rado_a7_c157_N24.cnf
c Rad2 upper bound instance: x1 + 7*x2 - x3 = 157, interval [1,24]
p cnf 24 150
1 5 23 0
-1 -5 -23 0
1 12 24 0
-1 -12 -24 0
2 6 23 0
-2 -6 -23 0
2 13 24 0
-2 -13 -24 0
3 7 23 0
-3 -7 -23 0
3 14 24 0
-3 -14 -24 0
1 4 22 0
-1 -4 -22 0
4 8 23 0
-4 -8 -23 0
4 15 24 0
-4 -15 -24 0
2 5 22 0
-2 -5 -22 0
5 9 23 0
-5 -9 -23 0
5 16 24 0
-5 -16 -24 0
3 6 22 0
-3 -6 -22 0
6 10 23 0
-6 -10 -23 0
6 17 24 0
-6 -17 -24 0
4 7 22 0
-4 -7 -22 0
7 11 23 0
-7 -11 -23 0
7 18 24 0
-7 -18 -24 0
5 8 22 0
-5 -8 -22 0
8 12 23 0
-8 -12 -23 0
8 19 24 0
-8 -19 -24 0
6 9 22 0
-6 -9 -22 0
9 13 23 0
-9 -13 -23 0
9 20 24 0
-9 -20 -24 0
7 10 22 0
-7 -10 -22 0
10 14 23 0
-10 -14 -23 0
10 21 24 0
-10 -21 -24 0
1 11 21 0
-1 -11 -21 0
8 11 22 0
-8 -11 -22 0
11 15 23 0
-11 -15 -23 0
11 22 24 0
-11 -22 -24 0
2 12 21 0
-2 -12 -21 0
9 12 22 0
-9 -12 -22 0
12 16 23 0
-12 -16 -23 0
12 23 24 0
-12 -23 -24 0
3 13 21 0
-3 -13 -21 0
10 13 22 0
-10 -13 -22 0
13 17 23 0
-13 -17 -23 0
13 24 0
-13 -24 0
4 14 21 0
-4 -14 -21 0
11 14 22 0
-11 -14 -22 0
14 18 23 0
-14 -18 -23 0
5 15 21 0
-5 -15 -21 0
12 15 22 0
-12 -15 -22 0
15 19 23 0
-15 -19 -23 0
6 16 21 0
-6 -16 -21 0
13 16 22 0
-13 -16 -22 0
16 20 23 0
-16 -20 -23 0
7 17 21 0
-7 -17 -21 0
14 17 22 0
-14 -17 -22 0
17 21 23 0
-17 -21 -23 0
1 18 20 0
-1 -18 -20 0
8 18 21 0
-8 -18 -21 0
15 18 22 0
-15 -18 -22 0
18 22 23 0
-18 -22 -23 0
2 19 20 0
-2 -19 -20 0
9 19 21 0
-9 -19 -21 0
16 19 22 0
-16 -19 -22 0
19 23 0
-19 -23 0
3 20 0
-3 -20 0
10 20 21 0
-10 -20 -21 0
17 20 22 0
-17 -20 -22 0
20 23 24 0
-20 -23 -24 0
4 20 21 0
-4 -20 -21 0
11 21 0
-11 -21 0
18 21 22 0
-18 -21 -22 0
5 20 22 0
-5 -20 -22 0
12 21 22 0
-12 -21 -22 0
19 22 0
-19 -22 0
6 20 23 0
-6 -20 -23 0
13 21 23 0
-13 -21 -23 0
20 22 23 0
-20 -22 -23 0
7 20 24 0
-7 -20 -24 0
14 21 24 0
-14 -21 -24 0
21 22 24 0
-21 -22 -24 0
