certificates/rado_a7_c157_N24.drat
-22 -24 0
d -11 -22 -24 0
-24 0
13 0
22 0
-19 0
-10 0
-16 0
23 0
8 0
21 0
5 0
-20 0
-9 0
-17 0
0
